************************************************************************
file with basedata            : md330_.bas
initial value random generator: 938402518
************************************************************************
projects                      :  1
jobs (incl. supersource/sink ):  22
horizon                       :  147
RESOURCES
  - renewable                 :  2   R
  - nonrenewable              :  2   N
  - doubly constrained        :  0   D
************************************************************************
PROJECT INFORMATION:
pronr.  #jobs rel.date duedate tardcost  MPM-Time
    1     20      0       19       19       19
************************************************************************
PRECEDENCE RELATIONS:
jobnr.    #modes  #successors   successors
   1        1          3           2   3   4
   2        3          3           5   7  10
   3        3          2          11  12
   4        3          2           6  11
   5        3          2           8  16
   6        3          3           8   9  10
   7        3          3          11  15  19
   8        3          2          18  20
   9        3          2          12  13
  10        3          1          21
  11        3          2          17  21
  12        3          3          15  16  19
  13        3          2          14  17
  14        3          2          19  20
  15        3          2          17  18
  16        3          1          18
  17        3          1          20
  18        3          1          21
  19        3          1          22
  20        3          1          22
  21        3          1          22
  22        1          0        
************************************************************************
REQUESTS/DURATIONS:
jobnr. mode duration  R 1  R 2  N 1  N 2
------------------------------------------------------------------------
  1      1     0       0    0    0    0
  2      1     2       0    7    6    0
         2     7       0    6    5    0
         3     8       2    0    0    1
  3      1     2       0    4    0    7
         2     5       6    0    7    0
         3     6       0    4    7    0
  4      1     3       0    8    3    0
         2     4      10    0    3    0
         3    10       0    5    3    0
  5      1     6       0    5    5    0
         2     7       4    0    4    0
         3    10       0    2    3    0
  6      1     5       6    0    5    0
         2     7       0    7    5    0
         3     8       1    0    4    0
  7      1     5       0   10    0    3
         2     8       0    7    7    0
         3    10       0    3    5    0
  8      1     2       0    8    0    2
         2     2       0    7    8    0
         3     7       0    4    0    2
  9      1     1      10    0    0    9
         2     3       7    0    8    0
         3     7       6    0    0    9
 10      1     3       0    2    0    4
         2     6       4    0    5    0
         3     7       0    1    0    2
 11      1     1       0    6    0    7
         2     5       0    5    0    4
         3     6       4    0    0    3
 12      1     2       5    0    6    0
         2     5       5    0    0    3
         3    10       0    9    0    2
 13      1     2       6    0    8    0
         2     3       0    7    0    7
         3     3       5    0    3    0
 14      1     2       0    7    3    0
         2     3       4    0    2    0
         3     7       0    6    1    0
 15      1     5       4    0    0    4
         2     8       3    0    7    0
         3     9       0   10    7    0
 16      1     1       0    6    7    0
         2     3       3    0    7    0
         3     4       0    4    7    0
 17      1     1       4    0    0    7
         2     7       4    0   10    0
         3     9       0    7   10    0
 18      1     1       0    7    0    8
         2     6       0    7    9    0
         3    10       0    7    6    0
 19      1     1       4    0    0   10
         2     5       0    8    0    7
         3     7       0    8    0    6
 20      1     1      10    0   10    0
         2     1       0    7    6    0
         3     2      10    0    5    0
 21      1     2       0    4    0    5
         2     6       5    0    0    5
         3     7       3    0    0    4
 22      1     0       0    0    0    0
************************************************************************
RESOURCEAVAILABILITIES:
  R 1  R 2  N 1  N 2
   13   17   69   45
************************************************************************
MAXIMAL LAGS:
from  to  type  delay
    1   12   ES      0
    1    2   ES      0
    2   12   ES      0
    1    3   ES      0
    3   12   ES      0
    1    4   ES      0
    4   12   ES      0
    1    5   ES      0
    5   12   ES      0
    1    6   ES      0
    6   12   ES      0
    1    7   ES      0
    7   12   ES      0
    1    8   ES      0
    8   12   ES      0
    1    9   ES      0
    9   12   ES      0
    1   10   ES      0
   10   12   ES      0
    1   11   ES      0
   11   12   ES      0
    1   12   ES      0
    2    5   SS     11
    2    5   SE     -2
    2    5   ES      1
    2    5   EE      7
    2    7   SS      4
    2    7   SE     -9
    7    2   SE      0
    2    7   ES      0
    2    7   EE      6
    2   10   SS     -6
    2   10   SE     -4
    2   10   ES    -11
    2   10   EE     10
    3   11   SS      1
    3   11   SE    -12
    3   11   ES      4
    3   11   EE      5
    4    6   SS      9
    4    6   SE     11
    4    6   ES     11
    4    6   EE     11
    4   11   SS      9
    4   11   SE     -6
    4   11   ES     -1
    4   11   EE      1
    5    8   SS    -10
    5    8   SE      9
    5    8   ES     -2
    5    8   EE      7
    5   16   SS     -2
    5   16   SE      9
    5   16   ES     -9
    5   16   EE     11
    6    8   SS     -3
    6    8   SE      4
    6    8   ES     -3
    6    8   EE      9
    6    9   SS      1
    6    9   SE     -2
    6    9   ES      0
    6    9   EE     10
    6   10   SS     -3
    6   10   SE      5
    6   10   ES     -8
    6   10   EE     -6
    7   11   SS      1
    7   11   SE      9
    7   11   ES      0
    7   11   EE      9
    7   15   SS     11
    7   15   SE     -7
    7   15   ES      7
    7   15   EE      6
    7   19   SS     -3
    7   19   SE      0
    7   19   ES      5
    7   19   EE    -12
    8   18   SS     -3
    8   18   SE     -3
    8   18   ES     -6
    8   18   EE      1
    8   20   SS      6
    8   20   SE      7
    8   20   ES      8
    8   20   EE     -2
    9   13   SS      2
    9   13   SE      2
    9   13   ES      2
    9   13   EE      9
   10   21   SS     -6
   10   21   SE      4
   10   21   ES      3
   10   21   EE     11
   11   17   SS     -7
   11   17   SE      9
   11   17   ES    -10
   11   17   EE     -3
   11   21   SS      4
   11   21   SE      9
   11   21   ES      8
   11   21   EE      7
   12   15   SS     -2
   12   15   SE    -10
   12   15   ES     12
   12   15   EE     -5
   12   16   SS      9
   12   16   SE     -3
   12   16   ES     -5
   12   16   EE     -6
   12   19   SS     -8
   12   19   SE    -12
   12   19   ES    -11
   12   19   EE     -5
   13   14   SS      3
   13   14   SE      7
   13   14   ES     12
   13   14   EE    -10
   13   17   SS      2
   13   17   SE      1
   13   17   ES      8
   13   17   EE      6
   14   19   SS     -6
   14   19   SE     10
   14   19   ES     10
   14   19   EE      0
   14   20   SS      3
   14   20   SE      0
   14   20   ES     -5
   14   20   EE     -8
   15   17   SS      8
   15   17   SE     10
   15   17   ES    -12
   15   17   EE     12
   15   18   SS     12
   15   18   SE     -9
   15   18   ES     12
   15   18   EE      1
   16   18   SS     -5
   16   18   SE     -7
   16   18   ES     10
   16   18   EE      4
   17   20   SS      2
   17   20   SE    -11
   17   20   ES      5
   17   20   EE     -5
   18   21   SS     -9
   18   21   SE      2
   18   21   ES     -8
   18   21   EE      2
   19   22   SS      9
   19   22   SE      4
   19   22   ES      5
   19   22   EE      7
   20   22   SS     -2
   20   22   SE     12
   20   22   ES      2
   20   22   EE      7
   21   22   SS     11
   21   22   SE      4
   21   22   ES      1
   21   22   EE      5
************************************************************************
